param set_len = 20;
param target_sum = 6822621003;
param values := [1] 884197297 [2] 892553215 [3] 348035031 [4] 78354960 [5] 75633500 [6] 801689640 [7] 1057174569 [8] 997435290 [9] 314720919 [10] 457634659 [11] 716658419 [12] 2585192 [13] 938500661 [14] 370289703 [15] 979781330 [16] 792200976 [17] 721848651 [18] 922429742 [19] 654175514 [20] 971609728 ;
